(declare-sort Loc 0)
(declare-const f1_0_main_Load Loc)
(declare-const f1598_0_main_InvokeMethod Loc)
(declare-const f202_0_createCollection_Return Loc)
(declare-const f89_0_createCollection_LE Loc)
(declare-const f2353_0_createCollection_GE Loc)
(declare-const f2751_0_insert_NONNULL Loc)
(declare-const f2753_0_insert_NONNULL Loc)
(declare-const f2789_0_createCollection_InvokeMethod Loc)
(declare-const f1863_0_minimum_NONNULL Loc)
(declare-const __init Loc)
(assert (distinct f1_0_main_Load f1598_0_main_InvokeMethod f202_0_createCollection_Return f89_0_createCollection_LE f2353_0_createCollection_GE f2751_0_insert_NONNULL f2753_0_insert_NONNULL f2789_0_createCollection_InvokeMethod f1863_0_minimum_NONNULL __init ))

(define-fun cfg_init ( (pc Loc) (src Loc) (rel Bool) ) Bool
  (and (= pc src) rel))

(define-fun cfg_trans2 ( (pc Loc) (src Loc)
                         (pc1 Loc) (dst Loc)
                         (rel Bool) ) Bool
  (and (= pc src) (= pc1 dst) rel))

(define-fun cfg_trans3 ( (pc Loc) (exit Loc)
                         (pc1 Loc) (call Loc)
                         (pc2 Loc) (return Loc)
                         (rel Bool) ) Bool
  (and (= pc exit) (= pc1 call) (= pc2 return) rel))

(define-fun init_main ( (pc Loc) (arg1 Int) (arg2 Int) (arg3 Int) (arg4 Int) (arg5 Int) (arg6 Int) (arg7 Int) ) Bool
  (cfg_init pc __init true))

(define-fun next_main (
                 (pc Loc) (arg1 Int) (arg2 Int) (arg3 Int) (arg4 Int) (arg5 Int) (arg6 Int) (arg7 Int)
                 (pc1 Loc) (arg1P Int) (arg2P Int) (arg3P Int) (arg4P Int) (arg5P Int) (arg6P Int) (arg7P Int)
             ) Bool
  (or
    (cfg_trans2 pc f1_0_main_Load pc1 f1598_0_main_InvokeMethod (and (and (and (<= arg1P arg1) (> arg1 0)) (> arg1P 0)) (> arg2P 0)))
    (cfg_trans2 pc f202_0_createCollection_Return pc1 f1598_0_main_InvokeMethod (and (and (and (and (<= arg1P arg1) (<= (- arg2P 1) arg1)) (> arg1 0)) (> arg1P 0)) (> arg2P 1)))
    (cfg_trans2 pc f1_0_main_Load pc1 f89_0_createCollection_LE (and (and (and (> arg1 0) (> arg2 0)) (= 0 arg1P)) (= arg2 arg2P)))
    (cfg_trans2 pc f1_0_main_Load pc1 f89_0_createCollection_LE (and (and (and (> arg1P (- 1)) (> arg2 0)) (> arg1 0)) (= arg2 arg2P)))
    (cfg_trans2 pc f1_0_main_Load pc1 f2353_0_createCollection_GE (and (and (and (and (and (and (and (<= (- arg1P 1) arg1) (> arg1 0)) (> arg1P 1)) (= 0 arg2)) (= 0 arg2P)) (= 0 arg3P)) (= 0 arg4P)) (= 0 arg5P)))
    (cfg_trans2 pc f89_0_createCollection_LE pc1 f2353_0_createCollection_GE (and (and (and (and (and (and (> arg1P 1) (= 0 arg1)) (= 1 arg2)) (= 0 arg2P)) (= 0 arg3P)) (= 1 arg4P)) (= 1 arg5P)))
    (cfg_trans2 pc f89_0_createCollection_LE pc1 f2353_0_createCollection_GE (and (and (and (and (and (and (> arg1 0) (> arg1P 1)) (= 1 arg2)) (= 0 arg2P)) (= 0 arg3P)) (= 1 arg4P)) (= 1 arg5P)))
    (cfg_trans2 pc f89_0_createCollection_LE pc1 f2353_0_createCollection_GE (and (and (and (and (and (and (> arg2 1) (> arg1P 1)) (= 0 arg1)) (= 0 arg2P)) (= 0 arg3P)) (= arg2 arg4P)) (= 2 arg5P)))
    (cfg_trans2 pc f89_0_createCollection_LE pc1 f2353_0_createCollection_GE (and (and (and (and (and (and (> arg3P (- 1)) (> arg1P 1)) (> arg2 1)) (= 0 arg1)) (= 0 arg2P)) (= arg2 arg4P)) (= 2 arg5P)))
    (cfg_trans2 pc f89_0_createCollection_LE pc1 f2353_0_createCollection_GE (and (and (and (and (and (and (> arg1 0) (> arg1P 1)) (> arg2 1)) (= 0 arg2P)) (= 0 arg3P)) (= arg2 arg4P)) (= 2 arg5P)))
    (cfg_trans2 pc f89_0_createCollection_LE pc1 f2353_0_createCollection_GE (and (and (and (and (and (and (> arg3P (- 1)) (> arg2 1)) (> arg1P 1)) (> arg1 0)) (= 0 arg2P)) (= arg2 arg4P)) (= 2 arg5P)))
    (cfg_trans2 pc f2353_0_createCollection_GE pc1 f2751_0_insert_NONNULL (and (and (and (and (and (and (and (and (and (> arg4 (- 1)) (> arg3 arg2)) (>= arg5 arg4)) (> arg3 0)) (<= arg1P arg1)) (<= (+ arg2P 2) arg1)) (> arg1 1)) (> arg1P 1)) (> arg2P (- 1))) (= 0 arg3P)))
    (cfg_trans2 pc f2353_0_createCollection_GE pc1 f2751_0_insert_NONNULL (and (and (and (and (and (and (and (and (and (> arg4 (- 1)) (> arg3 arg2)) (>= arg5 arg4)) (> arg3 0)) (<= (+ arg1P 1) arg1)) (<= (+ arg2P 2) arg1)) (> arg1 2)) (> arg1P 1)) (> arg2P 0)) (= 0 arg3P)))
    (cfg_trans2 pc f2353_0_createCollection_GE pc1 f2753_0_insert_NONNULL (and (and (and (and (and (and (and (and (and (> arg4 (- 1)) (> arg3 arg2)) (>= arg5 arg4)) (> arg3 0)) (<= arg1P arg1)) (<= (+ arg2P 2) arg1)) (> arg1 1)) (> arg1P 1)) (> arg2P (- 1))) (= 0 arg3P)))
    (cfg_trans2 pc f2353_0_createCollection_GE pc1 f2753_0_insert_NONNULL (and (and (and (and (and (and (and (and (and (> arg4 (- 1)) (> arg3 arg2)) (>= arg5 arg4)) (> arg3 0)) (<= (+ arg1P 1) arg1)) (<= (+ arg2P 2) arg1)) (> arg1 2)) (> arg1P 1)) (> arg2P 0)) (= 0 arg3P)))
    (cfg_trans2 pc f2353_0_createCollection_GE pc1 f2789_0_createCollection_InvokeMethod (and (and (and (and (and (and (and (and (and (and (and (and (and (> arg4 (- 1)) (> arg3 arg2)) (< arg5 arg4)) (> arg5 (- 1))) (<= arg3P arg1)) (<= (- arg4P 1) arg1)) (> arg1 0)) (> arg3P 0)) (> arg4P 1)) (= arg3 arg1P)) (= arg2 arg2P)) (= arg4 arg5P)) (= (+ arg5 1) arg6P)) (= 0 arg7P)))
    (cfg_trans2 pc f2353_0_createCollection_GE pc1 f2789_0_createCollection_InvokeMethod (and (and (and (and (and (and (and (and (and (and (and (and (> arg4 (- 1)) (> arg3 arg2)) (< arg5 arg4)) (> arg7P (- 1))) (> arg5 (- 1))) (<= arg3P arg1)) (> arg1 0)) (> arg3P 0)) (> arg4P 0)) (= arg3 arg1P)) (= arg2 arg2P)) (= arg4 arg5P)) (= (+ arg5 1) arg6P)))
    (cfg_trans2 pc f2789_0_createCollection_InvokeMethod pc1 f2751_0_insert_NONNULL (and (and (and (and (and (and (and (and (and (and (and (> arg1 0) (< arg2 arg1)) (> arg6 0)) (<= arg1P arg4)) (<= (+ arg2P 2) arg3)) (<= (+ arg2P 1) arg4)) (> arg3 1)) (> arg4 0)) (> arg1P 0)) (> arg2P (- 1))) (<= (+ arg7 2) arg4)) (= arg7 arg3P)))
    (cfg_trans2 pc f2789_0_createCollection_InvokeMethod pc1 f2753_0_insert_NONNULL (and (and (and (and (and (and (and (and (and (and (and (> arg1 0) (< arg2 arg1)) (> arg6 0)) (<= arg1P arg4)) (<= (+ arg2P 2) arg3)) (<= (+ arg2P 1) arg4)) (> arg3 1)) (> arg4 0)) (> arg1P 0)) (> arg2P (- 1))) (<= (+ arg7 2) arg4)) (= arg7 arg3P)))
    (cfg_trans2 pc f2789_0_createCollection_InvokeMethod pc1 f2751_0_insert_NONNULL (and (and (and (and (and (and (and (and (and (and (> arg1 0) (< arg2 arg1)) (> arg6 0)) (<= arg1P arg4)) (<= (+ arg2P 2) arg3)) (> arg3 2)) (> arg4 0)) (> arg1P 0)) (> arg2P 0)) (<= (+ arg7 2) arg4)) (= arg7 arg3P)))
    (cfg_trans2 pc f2789_0_createCollection_InvokeMethod pc1 f2753_0_insert_NONNULL (and (and (and (and (and (and (and (and (and (and (> arg1 0) (< arg2 arg1)) (> arg6 0)) (<= arg1P arg4)) (<= (+ arg2P 2) arg3)) (> arg3 2)) (> arg4 0)) (> arg1P 0)) (> arg2P 0)) (<= (+ arg7 2) arg4)) (= arg7 arg3P)))
    (cfg_trans2 pc f2353_0_createCollection_GE pc1 f2353_0_createCollection_GE (and (and (and (and (and (and (and (and (and (> arg4 (- 1)) (> arg3 arg2)) (>= arg5 arg4)) (> arg3 0)) (> arg1 1)) (> arg1P 4)) (= (+ arg2 1) arg2P)) (= arg3 arg3P)) (= arg4 arg4P)) (= arg5 arg5P)))
    (cfg_trans2 pc f2789_0_createCollection_InvokeMethod pc1 f2353_0_createCollection_GE (and (and (and (and (and (and (and (and (and (and (> arg1 0) (< arg2 arg1)) (> arg6 0)) (> arg3 1)) (> arg4 0)) (> arg1P 4)) (<= (+ arg7 2) arg4)) (= (+ arg2 1) arg2P)) (= arg1 arg3P)) (= arg5 arg4P)) (= arg6 arg5P)))
    (cfg_trans2 pc f2353_0_createCollection_GE pc1 f2353_0_createCollection_GE (and (and (and (and (and (and (and (and (and (> arg4 (- 1)) (> arg3 arg2)) (>= arg5 arg4)) (> arg3 0)) (> arg1 1)) (> arg1P 4)) (= (+ arg2 1) arg2P)) (= arg3 arg3P)) (= arg4 arg4P)) (= arg5 arg5P)))
    (cfg_trans2 pc f2789_0_createCollection_InvokeMethod pc1 f2353_0_createCollection_GE (and (and (and (and (and (and (and (and (and (and (> arg1 0) (< arg2 arg1)) (> arg6 0)) (> arg3 1)) (> arg4 0)) (> arg1P 4)) (<= (+ arg7 2) arg4)) (= (+ arg2 1) arg2P)) (= arg1 arg3P)) (= arg5 arg4P)) (= arg6 arg5P)))
    (cfg_trans2 pc f2353_0_createCollection_GE pc1 f2353_0_createCollection_GE (and (and (and (and (and (and (and (and (and (> arg4 (- 1)) (> arg3 arg2)) (>= arg5 arg4)) (> arg3 0)) (> arg1 4)) (> arg1P 7)) (= (+ arg2 1) arg2P)) (= arg3 arg3P)) (= arg4 arg4P)) (= arg5 arg5P)))
    (cfg_trans2 pc f2789_0_createCollection_InvokeMethod pc1 f2353_0_createCollection_GE (and (and (and (and (and (and (and (and (and (and (> arg1 0) (< arg2 arg1)) (> arg6 0)) (> arg3 4)) (> arg4 0)) (> arg1P 7)) (<= (+ arg7 2) arg4)) (= (+ arg2 1) arg2P)) (= arg1 arg3P)) (= arg5 arg4P)) (= arg6 arg5P)))
    (cfg_trans2 pc f2353_0_createCollection_GE pc1 f2353_0_createCollection_GE (and (and (and (and (and (and (and (and (and (> arg4 (- 1)) (> arg3 arg2)) (>= arg5 arg4)) (> arg3 0)) (> arg1 2)) (> arg1P 8)) (= (+ arg2 1) arg2P)) (= arg3 arg3P)) (= arg4 arg4P)) (= arg5 arg5P)))
    (cfg_trans2 pc f2353_0_createCollection_GE pc1 f2353_0_createCollection_GE (and (and (and (and (and (and (and (and (and (> arg4 (- 1)) (> arg3 arg2)) (>= arg5 arg4)) (> arg3 0)) (> arg1 2)) (> arg1P 8)) (= (+ arg2 1) arg2P)) (= arg3 arg3P)) (= arg4 arg4P)) (= arg5 arg5P)))
    (cfg_trans2 pc f2789_0_createCollection_InvokeMethod pc1 f2353_0_createCollection_GE (and (and (and (and (and (and (and (and (and (and (> arg1 0) (< arg2 arg1)) (> arg6 0)) (> arg3 2)) (> arg4 0)) (> arg1P 8)) (<= (+ arg7 2) arg4)) (= (+ arg2 1) arg2P)) (= arg1 arg3P)) (= arg5 arg4P)) (= arg6 arg5P)))
    (cfg_trans2 pc f2789_0_createCollection_InvokeMethod pc1 f2353_0_createCollection_GE (and (and (and (and (and (and (and (and (and (and (> arg1 0) (< arg2 arg1)) (> arg6 0)) (> arg3 2)) (> arg4 0)) (> arg1P 8)) (<= (+ arg7 2) arg4)) (= (+ arg2 1) arg2P)) (= arg1 arg3P)) (= arg5 arg4P)) (= arg6 arg5P)))
    (cfg_trans2 pc f2353_0_createCollection_GE pc1 f2353_0_createCollection_GE (and (and (and (and (and (and (and (and (and (> arg4 (- 1)) (> arg3 arg2)) (>= arg5 arg4)) (> arg3 0)) (> arg1 2)) (> arg1P 10)) (= (+ arg2 1) arg2P)) (= arg3 arg3P)) (= arg4 arg4P)) (= arg5 arg5P)))
    (cfg_trans2 pc f2353_0_createCollection_GE pc1 f2353_0_createCollection_GE (and (and (and (and (and (and (and (and (and (> arg4 (- 1)) (> arg3 arg2)) (>= arg5 arg4)) (> arg3 0)) (> arg1 2)) (> arg1P 10)) (= (+ arg2 1) arg2P)) (= arg3 arg3P)) (= arg4 arg4P)) (= arg5 arg5P)))
    (cfg_trans2 pc f2789_0_createCollection_InvokeMethod pc1 f2353_0_createCollection_GE (and (and (and (and (and (and (and (and (and (and (> arg1 0) (< arg2 arg1)) (> arg6 0)) (> arg3 2)) (> arg4 0)) (> arg1P 10)) (<= (+ arg7 2) arg4)) (= (+ arg2 1) arg2P)) (= arg1 arg3P)) (= arg5 arg4P)) (= arg6 arg5P)))
    (cfg_trans2 pc f2789_0_createCollection_InvokeMethod pc1 f2353_0_createCollection_GE (and (and (and (and (and (and (and (and (and (and (> arg1 0) (< arg2 arg1)) (> arg6 0)) (> arg3 2)) (> arg4 0)) (> arg1P 10)) (<= (+ arg7 2) arg4)) (= (+ arg2 1) arg2P)) (= arg1 arg3P)) (= arg5 arg4P)) (= arg6 arg5P)))
    (cfg_trans2 pc f2353_0_createCollection_GE pc1 f2353_0_createCollection_GE (and (and (and (and (and (and (and (and (and (> arg4 (- 1)) (> arg3 arg2)) (>= arg5 arg4)) (> arg3 0)) (> arg1 2)) (> arg1P 7)) (= (+ arg2 1) arg2P)) (= arg3 arg3P)) (= arg4 arg4P)) (= arg5 arg5P)))
    (cfg_trans2 pc f2353_0_createCollection_GE pc1 f2353_0_createCollection_GE (and (and (and (and (and (and (and (and (and (> arg4 (- 1)) (> arg3 arg2)) (>= arg5 arg4)) (> arg3 0)) (> arg1 2)) (> arg1P 7)) (= (+ arg2 1) arg2P)) (= arg3 arg3P)) (= arg4 arg4P)) (= arg5 arg5P)))
    (cfg_trans2 pc f2789_0_createCollection_InvokeMethod pc1 f2353_0_createCollection_GE (and (and (and (and (and (and (and (and (and (and (> arg1 0) (< arg2 arg1)) (> arg6 0)) (> arg3 2)) (> arg4 0)) (> arg1P 7)) (<= (+ arg7 2) arg4)) (= (+ arg2 1) arg2P)) (= arg1 arg3P)) (= arg5 arg4P)) (= arg6 arg5P)))
    (cfg_trans2 pc f2789_0_createCollection_InvokeMethod pc1 f2353_0_createCollection_GE (and (and (and (and (and (and (and (and (and (and (> arg1 0) (< arg2 arg1)) (> arg6 0)) (> arg3 2)) (> arg4 0)) (> arg1P 7)) (<= (+ arg7 2) arg4)) (= (+ arg2 1) arg2P)) (= arg1 arg3P)) (= arg5 arg4P)) (= arg6 arg5P)))
    (cfg_trans2 pc f2353_0_createCollection_GE pc1 f2353_0_createCollection_GE (and (and (and (and (and (and (and (and (and (> arg4 (- 1)) (> arg3 arg2)) (>= arg5 arg4)) (> arg3 0)) (> arg1 1)) (> arg1P 8)) (= (+ arg2 1) arg2P)) (= arg3 arg3P)) (= arg4 arg4P)) (= arg5 arg5P)))
    (cfg_trans2 pc f2353_0_createCollection_GE pc1 f2353_0_createCollection_GE (and (and (and (and (and (and (and (and (and (> arg4 (- 1)) (> arg3 arg2)) (>= arg5 arg4)) (> arg3 0)) (> arg1 1)) (> arg1P 8)) (= (+ arg2 1) arg2P)) (= arg3 arg3P)) (= arg4 arg4P)) (= arg5 arg5P)))
    (cfg_trans2 pc f2789_0_createCollection_InvokeMethod pc1 f2353_0_createCollection_GE (and (and (and (and (and (and (and (and (and (and (> arg1 0) (< arg2 arg1)) (> arg6 0)) (> arg3 1)) (> arg4 0)) (> arg1P 8)) (<= (+ arg7 2) arg4)) (= (+ arg2 1) arg2P)) (= arg1 arg3P)) (= arg5 arg4P)) (= arg6 arg5P)))
    (cfg_trans2 pc f2789_0_createCollection_InvokeMethod pc1 f2353_0_createCollection_GE (and (and (and (and (and (and (and (and (and (and (> arg1 0) (< arg2 arg1)) (> arg6 0)) (> arg3 1)) (> arg4 0)) (> arg1P 8)) (<= (+ arg7 2) arg4)) (= (+ arg2 1) arg2P)) (= arg1 arg3P)) (= arg5 arg4P)) (= arg6 arg5P)))
    (cfg_trans2 pc f2353_0_createCollection_GE pc1 f2353_0_createCollection_GE (and (and (and (and (and (and (and (and (and (> arg4 (- 1)) (> arg3 arg2)) (>= arg5 arg4)) (> arg3 0)) (> arg1 1)) (> arg1P 10)) (= (+ arg2 1) arg2P)) (= arg3 arg3P)) (= arg4 arg4P)) (= arg5 arg5P)))
    (cfg_trans2 pc f2353_0_createCollection_GE pc1 f2353_0_createCollection_GE (and (and (and (and (and (and (and (and (and (> arg4 (- 1)) (> arg3 arg2)) (>= arg5 arg4)) (> arg3 0)) (> arg1 1)) (> arg1P 10)) (= (+ arg2 1) arg2P)) (= arg3 arg3P)) (= arg4 arg4P)) (= arg5 arg5P)))
    (cfg_trans2 pc f2789_0_createCollection_InvokeMethod pc1 f2353_0_createCollection_GE (and (and (and (and (and (and (and (and (and (and (> arg1 0) (< arg2 arg1)) (> arg6 0)) (> arg3 1)) (> arg4 0)) (> arg1P 10)) (<= (+ arg7 2) arg4)) (= (+ arg2 1) arg2P)) (= arg1 arg3P)) (= arg5 arg4P)) (= arg6 arg5P)))
    (cfg_trans2 pc f2789_0_createCollection_InvokeMethod pc1 f2353_0_createCollection_GE (and (and (and (and (and (and (and (and (and (and (> arg1 0) (< arg2 arg1)) (> arg6 0)) (> arg3 1)) (> arg4 0)) (> arg1P 10)) (<= (+ arg7 2) arg4)) (= (+ arg2 1) arg2P)) (= arg1 arg3P)) (= arg5 arg4P)) (= arg6 arg5P)))
    (cfg_trans2 pc f2353_0_createCollection_GE pc1 f2353_0_createCollection_GE (and (and (and (and (and (and (and (and (and (> arg4 (- 1)) (> arg3 arg2)) (>= arg5 arg4)) (> arg3 0)) (> arg1 1)) (> arg1P 7)) (= (+ arg2 1) arg2P)) (= arg3 arg3P)) (= arg4 arg4P)) (= arg5 arg5P)))
    (cfg_trans2 pc f2353_0_createCollection_GE pc1 f2353_0_createCollection_GE (and (and (and (and (and (and (and (and (and (> arg4 (- 1)) (> arg3 arg2)) (>= arg5 arg4)) (> arg3 0)) (> arg1 1)) (> arg1P 7)) (= (+ arg2 1) arg2P)) (= arg3 arg3P)) (= arg4 arg4P)) (= arg5 arg5P)))
    (cfg_trans2 pc f2789_0_createCollection_InvokeMethod pc1 f2353_0_createCollection_GE (and (and (and (and (and (and (and (and (and (and (> arg1 0) (< arg2 arg1)) (> arg6 0)) (> arg3 1)) (> arg4 0)) (> arg1P 7)) (<= (+ arg7 2) arg4)) (= (+ arg2 1) arg2P)) (= arg1 arg3P)) (= arg5 arg4P)) (= arg6 arg5P)))
    (cfg_trans2 pc f2789_0_createCollection_InvokeMethod pc1 f2353_0_createCollection_GE (and (and (and (and (and (and (and (and (and (and (> arg1 0) (< arg2 arg1)) (> arg6 0)) (> arg3 1)) (> arg4 0)) (> arg1P 7)) (<= (+ arg7 2) arg4)) (= (+ arg2 1) arg2P)) (= arg1 arg3P)) (= arg5 arg4P)) (= arg6 arg5P)))
    (cfg_trans2 pc f2353_0_createCollection_GE pc1 f2353_0_createCollection_GE (and (and (and (and (and (and (and (and (and (> arg4 (- 1)) (> arg3 arg2)) (>= arg5 arg4)) (> arg3 0)) (> arg1 2)) (> arg1P 8)) (= (+ arg2 1) arg2P)) (= arg3 arg3P)) (= arg4 arg4P)) (= arg5 arg5P)))
    (cfg_trans2 pc f2353_0_createCollection_GE pc1 f2353_0_createCollection_GE (and (and (and (and (and (and (and (and (and (> arg4 (- 1)) (> arg3 arg2)) (>= arg5 arg4)) (> arg3 0)) (> arg1 2)) (> arg1P 8)) (= (+ arg2 1) arg2P)) (= arg3 arg3P)) (= arg4 arg4P)) (= arg5 arg5P)))
    (cfg_trans2 pc f2353_0_createCollection_GE pc1 f2353_0_createCollection_GE (and (and (and (and (and (and (and (and (and (> arg4 (- 1)) (> arg3 arg2)) (>= arg5 arg4)) (> arg3 0)) (> arg1 2)) (> arg1P 8)) (= (+ arg2 1) arg2P)) (= arg3 arg3P)) (= arg4 arg4P)) (= arg5 arg5P)))
    (cfg_trans2 pc f2353_0_createCollection_GE pc1 f2353_0_createCollection_GE (and (and (and (and (and (and (and (and (and (> arg4 (- 1)) (> arg3 arg2)) (>= arg5 arg4)) (> arg3 0)) (> arg1 2)) (> arg1P 8)) (= (+ arg2 1) arg2P)) (= arg3 arg3P)) (= arg4 arg4P)) (= arg5 arg5P)))
    (cfg_trans2 pc f2789_0_createCollection_InvokeMethod pc1 f2353_0_createCollection_GE (and (and (and (and (and (and (and (and (and (and (> arg1 0) (< arg2 arg1)) (> arg6 0)) (> arg3 2)) (> arg4 0)) (> arg1P 8)) (<= (+ arg7 2) arg4)) (= (+ arg2 1) arg2P)) (= arg1 arg3P)) (= arg5 arg4P)) (= arg6 arg5P)))
    (cfg_trans2 pc f2789_0_createCollection_InvokeMethod pc1 f2353_0_createCollection_GE (and (and (and (and (and (and (and (and (and (and (> arg1 0) (< arg2 arg1)) (> arg6 0)) (> arg3 2)) (> arg4 0)) (> arg1P 8)) (<= (+ arg7 2) arg4)) (= (+ arg2 1) arg2P)) (= arg1 arg3P)) (= arg5 arg4P)) (= arg6 arg5P)))
    (cfg_trans2 pc f2789_0_createCollection_InvokeMethod pc1 f2353_0_createCollection_GE (and (and (and (and (and (and (and (and (and (and (> arg1 0) (< arg2 arg1)) (> arg6 0)) (> arg3 2)) (> arg4 0)) (> arg1P 8)) (<= (+ arg7 2) arg4)) (= (+ arg2 1) arg2P)) (= arg1 arg3P)) (= arg5 arg4P)) (= arg6 arg5P)))
    (cfg_trans2 pc f2789_0_createCollection_InvokeMethod pc1 f2353_0_createCollection_GE (and (and (and (and (and (and (and (and (and (and (> arg1 0) (< arg2 arg1)) (> arg6 0)) (> arg3 2)) (> arg4 0)) (> arg1P 8)) (<= (+ arg7 2) arg4)) (= (+ arg2 1) arg2P)) (= arg1 arg3P)) (= arg5 arg4P)) (= arg6 arg5P)))
    (cfg_trans2 pc f2353_0_createCollection_GE pc1 f2353_0_createCollection_GE (and (and (and (and (and (and (and (and (and (> arg4 (- 1)) (> arg3 arg2)) (>= arg5 arg4)) (> arg3 0)) (> arg1 2)) (> arg1P 7)) (= (+ arg2 1) arg2P)) (= arg3 arg3P)) (= arg4 arg4P)) (= arg5 arg5P)))
    (cfg_trans2 pc f2353_0_createCollection_GE pc1 f2353_0_createCollection_GE (and (and (and (and (and (and (and (and (and (> arg4 (- 1)) (> arg3 arg2)) (>= arg5 arg4)) (> arg3 0)) (> arg1 2)) (> arg1P 7)) (= (+ arg2 1) arg2P)) (= arg3 arg3P)) (= arg4 arg4P)) (= arg5 arg5P)))
    (cfg_trans2 pc f2789_0_createCollection_InvokeMethod pc1 f2353_0_createCollection_GE (and (and (and (and (and (and (and (and (and (and (> arg1 0) (< arg2 arg1)) (> arg6 0)) (> arg3 2)) (> arg4 0)) (> arg1P 7)) (<= (+ arg7 2) arg4)) (= (+ arg2 1) arg2P)) (= arg1 arg3P)) (= arg5 arg4P)) (= arg6 arg5P)))
    (cfg_trans2 pc f2789_0_createCollection_InvokeMethod pc1 f2353_0_createCollection_GE (and (and (and (and (and (and (and (and (and (and (> arg1 0) (< arg2 arg1)) (> arg6 0)) (> arg3 2)) (> arg4 0)) (> arg1P 7)) (<= (+ arg7 2) arg4)) (= (+ arg2 1) arg2P)) (= arg1 arg3P)) (= arg5 arg4P)) (= arg6 arg5P)))
    (cfg_trans2 pc f2353_0_createCollection_GE pc1 f2353_0_createCollection_GE (and (and (and (and (and (and (and (and (and (> arg4 (- 1)) (> arg3 arg2)) (>= arg5 arg4)) (> arg3 0)) (> arg1 1)) (> arg1P 8)) (= (+ arg2 1) arg2P)) (= arg3 arg3P)) (= arg4 arg4P)) (= arg5 arg5P)))
    (cfg_trans2 pc f2353_0_createCollection_GE pc1 f2353_0_createCollection_GE (and (and (and (and (and (and (and (and (and (> arg4 (- 1)) (> arg3 arg2)) (>= arg5 arg4)) (> arg3 0)) (> arg1 1)) (> arg1P 8)) (= (+ arg2 1) arg2P)) (= arg3 arg3P)) (= arg4 arg4P)) (= arg5 arg5P)))
    (cfg_trans2 pc f2353_0_createCollection_GE pc1 f2353_0_createCollection_GE (and (and (and (and (and (and (and (and (and (> arg4 (- 1)) (> arg3 arg2)) (>= arg5 arg4)) (> arg3 0)) (> arg1 1)) (> arg1P 8)) (= (+ arg2 1) arg2P)) (= arg3 arg3P)) (= arg4 arg4P)) (= arg5 arg5P)))
    (cfg_trans2 pc f2353_0_createCollection_GE pc1 f2353_0_createCollection_GE (and (and (and (and (and (and (and (and (and (> arg4 (- 1)) (> arg3 arg2)) (>= arg5 arg4)) (> arg3 0)) (> arg1 1)) (> arg1P 8)) (= (+ arg2 1) arg2P)) (= arg3 arg3P)) (= arg4 arg4P)) (= arg5 arg5P)))
    (cfg_trans2 pc f2789_0_createCollection_InvokeMethod pc1 f2353_0_createCollection_GE (and (and (and (and (and (and (and (and (and (and (> arg1 0) (< arg2 arg1)) (> arg6 0)) (> arg3 1)) (> arg4 0)) (> arg1P 8)) (<= (+ arg7 2) arg4)) (= (+ arg2 1) arg2P)) (= arg1 arg3P)) (= arg5 arg4P)) (= arg6 arg5P)))
    (cfg_trans2 pc f2789_0_createCollection_InvokeMethod pc1 f2353_0_createCollection_GE (and (and (and (and (and (and (and (and (and (and (> arg1 0) (< arg2 arg1)) (> arg6 0)) (> arg3 1)) (> arg4 0)) (> arg1P 8)) (<= (+ arg7 2) arg4)) (= (+ arg2 1) arg2P)) (= arg1 arg3P)) (= arg5 arg4P)) (= arg6 arg5P)))
    (cfg_trans2 pc f2789_0_createCollection_InvokeMethod pc1 f2353_0_createCollection_GE (and (and (and (and (and (and (and (and (and (and (> arg1 0) (< arg2 arg1)) (> arg6 0)) (> arg3 1)) (> arg4 0)) (> arg1P 8)) (<= (+ arg7 2) arg4)) (= (+ arg2 1) arg2P)) (= arg1 arg3P)) (= arg5 arg4P)) (= arg6 arg5P)))
    (cfg_trans2 pc f2789_0_createCollection_InvokeMethod pc1 f2353_0_createCollection_GE (and (and (and (and (and (and (and (and (and (and (> arg1 0) (< arg2 arg1)) (> arg6 0)) (> arg3 1)) (> arg4 0)) (> arg1P 8)) (<= (+ arg7 2) arg4)) (= (+ arg2 1) arg2P)) (= arg1 arg3P)) (= arg5 arg4P)) (= arg6 arg5P)))
    (cfg_trans2 pc f2353_0_createCollection_GE pc1 f2353_0_createCollection_GE (and (and (and (and (and (and (and (and (and (> arg4 (- 1)) (> arg3 arg2)) (>= arg5 arg4)) (> arg3 0)) (> arg1 1)) (> arg1P 7)) (= (+ arg2 1) arg2P)) (= arg3 arg3P)) (= arg4 arg4P)) (= arg5 arg5P)))
    (cfg_trans2 pc f2353_0_createCollection_GE pc1 f2353_0_createCollection_GE (and (and (and (and (and (and (and (and (and (> arg4 (- 1)) (> arg3 arg2)) (>= arg5 arg4)) (> arg3 0)) (> arg1 1)) (> arg1P 7)) (= (+ arg2 1) arg2P)) (= arg3 arg3P)) (= arg4 arg4P)) (= arg5 arg5P)))
    (cfg_trans2 pc f2789_0_createCollection_InvokeMethod pc1 f2353_0_createCollection_GE (and (and (and (and (and (and (and (and (and (and (> arg1 0) (< arg2 arg1)) (> arg6 0)) (> arg3 1)) (> arg4 0)) (> arg1P 7)) (<= (+ arg7 2) arg4)) (= (+ arg2 1) arg2P)) (= arg1 arg3P)) (= arg5 arg4P)) (= arg6 arg5P)))
    (cfg_trans2 pc f2789_0_createCollection_InvokeMethod pc1 f2353_0_createCollection_GE (and (and (and (and (and (and (and (and (and (and (> arg1 0) (< arg2 arg1)) (> arg6 0)) (> arg3 1)) (> arg4 0)) (> arg1P 7)) (<= (+ arg7 2) arg4)) (= (+ arg2 1) arg2P)) (= arg1 arg3P)) (= arg5 arg4P)) (= arg6 arg5P)))
    (cfg_trans2 pc f2353_0_createCollection_GE pc1 f2353_0_createCollection_GE (and (and (and (and (and (and (and (and (and (> arg4 (- 1)) (> arg3 arg2)) (>= arg5 arg4)) (> arg3 0)) (> arg1 2)) (> arg1P 8)) (= (+ arg2 1) arg2P)) (= arg3 arg3P)) (= arg4 arg4P)) (= arg5 arg5P)))
    (cfg_trans2 pc f2353_0_createCollection_GE pc1 f2353_0_createCollection_GE (and (and (and (and (and (and (and (and (and (> arg4 (- 1)) (> arg3 arg2)) (>= arg5 arg4)) (> arg3 0)) (> arg1 2)) (> arg1P 8)) (= (+ arg2 1) arg2P)) (= arg3 arg3P)) (= arg4 arg4P)) (= arg5 arg5P)))
    (cfg_trans2 pc f2789_0_createCollection_InvokeMethod pc1 f2353_0_createCollection_GE (and (and (and (and (and (and (and (and (and (and (> arg1 0) (< arg2 arg1)) (> arg6 0)) (> arg3 2)) (> arg4 0)) (> arg1P 8)) (<= (+ arg7 2) arg4)) (= (+ arg2 1) arg2P)) (= arg1 arg3P)) (= arg5 arg4P)) (= arg6 arg5P)))
    (cfg_trans2 pc f2789_0_createCollection_InvokeMethod pc1 f2353_0_createCollection_GE (and (and (and (and (and (and (and (and (and (and (> arg1 0) (< arg2 arg1)) (> arg6 0)) (> arg3 2)) (> arg4 0)) (> arg1P 8)) (<= (+ arg7 2) arg4)) (= (+ arg2 1) arg2P)) (= arg1 arg3P)) (= arg5 arg4P)) (= arg6 arg5P)))
    (cfg_trans2 pc f2353_0_createCollection_GE pc1 f2353_0_createCollection_GE (and (and (and (and (and (and (and (and (and (> arg4 (- 1)) (> arg3 arg2)) (>= arg5 arg4)) (> arg3 0)) (> arg1 2)) (> arg1P 7)) (= (+ arg2 1) arg2P)) (= arg3 arg3P)) (= arg4 arg4P)) (= arg5 arg5P)))
    (cfg_trans2 pc f2789_0_createCollection_InvokeMethod pc1 f2353_0_createCollection_GE (and (and (and (and (and (and (and (and (and (and (> arg1 0) (< arg2 arg1)) (> arg6 0)) (> arg3 2)) (> arg4 0)) (> arg1P 7)) (<= (+ arg7 2) arg4)) (= (+ arg2 1) arg2P)) (= arg1 arg3P)) (= arg5 arg4P)) (= arg6 arg5P)))
    (cfg_trans2 pc f2353_0_createCollection_GE pc1 f2353_0_createCollection_GE (and (and (and (and (and (and (and (and (and (> arg4 (- 1)) (> arg3 arg2)) (>= arg5 arg4)) (> arg3 0)) (> arg1 1)) (> arg1P 8)) (= (+ arg2 1) arg2P)) (= arg3 arg3P)) (= arg4 arg4P)) (= arg5 arg5P)))
    (cfg_trans2 pc f2353_0_createCollection_GE pc1 f2353_0_createCollection_GE (and (and (and (and (and (and (and (and (and (> arg4 (- 1)) (> arg3 arg2)) (>= arg5 arg4)) (> arg3 0)) (> arg1 1)) (> arg1P 8)) (= (+ arg2 1) arg2P)) (= arg3 arg3P)) (= arg4 arg4P)) (= arg5 arg5P)))
    (cfg_trans2 pc f2789_0_createCollection_InvokeMethod pc1 f2353_0_createCollection_GE (and (and (and (and (and (and (and (and (and (and (> arg1 0) (< arg2 arg1)) (> arg6 0)) (> arg3 1)) (> arg4 0)) (> arg1P 8)) (<= (+ arg7 2) arg4)) (= (+ arg2 1) arg2P)) (= arg1 arg3P)) (= arg5 arg4P)) (= arg6 arg5P)))
    (cfg_trans2 pc f2789_0_createCollection_InvokeMethod pc1 f2353_0_createCollection_GE (and (and (and (and (and (and (and (and (and (and (> arg1 0) (< arg2 arg1)) (> arg6 0)) (> arg3 1)) (> arg4 0)) (> arg1P 8)) (<= (+ arg7 2) arg4)) (= (+ arg2 1) arg2P)) (= arg1 arg3P)) (= arg5 arg4P)) (= arg6 arg5P)))
    (cfg_trans2 pc f2353_0_createCollection_GE pc1 f2353_0_createCollection_GE (and (and (and (and (and (and (and (and (and (> arg4 (- 1)) (> arg3 arg2)) (>= arg5 arg4)) (> arg3 0)) (> arg1 1)) (> arg1P 7)) (= (+ arg2 1) arg2P)) (= arg3 arg3P)) (= arg4 arg4P)) (= arg5 arg5P)))
    (cfg_trans2 pc f2789_0_createCollection_InvokeMethod pc1 f2353_0_createCollection_GE (and (and (and (and (and (and (and (and (and (and (> arg1 0) (< arg2 arg1)) (> arg6 0)) (> arg3 1)) (> arg4 0)) (> arg1P 7)) (<= (+ arg7 2) arg4)) (= (+ arg2 1) arg2P)) (= arg1 arg3P)) (= arg5 arg4P)) (= arg6 arg5P)))
    (cfg_trans2 pc f2751_0_insert_NONNULL pc1 f2751_0_insert_NONNULL (and (and (and (and (and (and (and (<= arg1P arg1) (<= (+ arg2P 2) arg2)) (> arg1 0)) (> arg2 1)) (> arg1P 0)) (> arg2P (- 1))) (<= (+ arg3 2) arg1)) (= arg3 arg3P)))
    (cfg_trans2 pc f2751_0_insert_NONNULL pc1 f2751_0_insert_NONNULL (exists ((x581 Int)) (and (and (and (and (and (and (and (and (<= arg1P arg1) (<= x581 arg3)) (<= (+ arg2P 3) arg2)) (> arg1 0)) (> arg2 2)) (> arg1P 0)) (> arg2P (- 1))) (<= (+ arg3 2) arg1)) (= arg3 arg3P))))
    (cfg_trans2 pc f2753_0_insert_NONNULL pc1 f2753_0_insert_NONNULL (and (and (and (and (and (and (and (<= arg1P arg1) (<= (+ arg2P 2) arg2)) (> arg1 0)) (> arg2 1)) (> arg1P 0)) (> arg2P (- 1))) (<= (+ arg3 2) arg1)) (= arg3 arg3P)))
    (cfg_trans2 pc f2753_0_insert_NONNULL pc1 f2753_0_insert_NONNULL (exists ((x592 Int)) (and (and (and (and (and (and (and (and (<= arg1P arg1) (<= x592 arg3)) (<= (+ arg2P 3) arg2)) (> arg1 0)) (> arg2 2)) (> arg1P 0)) (> arg2P (- 1))) (<= (+ arg3 2) arg1)) (= arg3 arg3P))))
    (cfg_trans2 pc f2753_0_insert_NONNULL pc1 f2753_0_insert_NONNULL (exists ((x598 Int)) (and (and (and (and (and (and (and (and (and (> x598 0) (> x598 arg3)) (<= arg1P arg1)) (<= (+ arg2P 3) arg2)) (> arg1 0)) (> arg2 2)) (> arg1P 0)) (> arg2P (- 1))) (<= (+ arg3 2) arg1)) (= arg3 arg3P))))
    (cfg_trans2 pc f1598_0_main_InvokeMethod pc1 f1863_0_minimum_NONNULL (and (and (and (and (and (and (and (<= (+ arg1P 2) arg2) (<= (+ arg2P 3) arg2)) (> arg1 0)) (> arg2 2)) (> arg1P 0)) (> arg2P (- 1))) (<= (+ arg4P 4) arg2)) (<= (+ arg3P 5) arg2)))
    (cfg_trans2 pc f1863_0_minimum_NONNULL pc1 f1863_0_minimum_NONNULL (and (and (and (and (and (and (and (and (and (and (and (and (and (<= (+ arg1P 3) arg1) (<= arg1P arg2)) (<= (+ arg2P 4) arg1)) (<= (+ arg2P 1) arg2)) (> arg1 3)) (> arg2 0)) (> arg1P 0)) (> arg2P (- 1))) (<= (+ arg3 3) arg1)) (<= (+ arg3P 6) arg1)) (<= (+ arg4P 5) arg1)) (<= (+ arg4 2) arg1)) (<= (+ arg4P 2) arg2)) (<= (+ arg3P 3) arg2)))
    (cfg_trans2 pc __init pc1 f1_0_main_Load true)
  )
)
